
Gurobi 11.0.1 (win64) logging started Tue May 14 18:34:52 2024

Set parameter LogFile to value "output/solver_log6.txt"
Gurobi Optimizer version 11.0.1 build v11.0.1rc0 (win64 - Windows 11.0 (22631.2))

CPU model: 11th Gen Intel(R) Core(TM) i7-1165G7 @ 2.80GHz, instruction set [SSE2|AVX|AVX2|AVX512]
Thread count: 4 physical cores, 8 logical processors, using up to 8 threads

Optimize a model with 1197 rows, 340 columns and 22147 nonzeros
Model fingerprint: 0x6f93e73b
Variable types: 88 continuous, 252 integer (252 binary)
Coefficient statistics:
  Matrix range     [4e-01, 1e+05]
  Objective range  [1e+00, 1e+02]
  Bounds range     [1e+00, 1e+00]
  RHS range        [1e-02, 1e+05]

User MIP start produced solution with objective 57233.7 (0.00s)
User MIP start produced solution with objective 57233.7 (0.00s)
Loaded user MIP start with objective 57233.7

Presolve removed 137 rows and 141 columns
Presolve time: 0.02s
Presolved: 1060 rows, 199 columns, 21003 nonzeros
Variable types: 81 continuous, 118 integer (116 binary)

Root relaxation: objective 5.746047e+04, 333 iterations, 0.02 seconds (0.04 work units)

    Nodes    |    Current Node    |     Objective Bounds      |     Work
 Expl Unexpl |  Obj  Depth IntInf | Incumbent    BestBd   Gap | It/Node Time

     0     0 57460.4703    0    3 57233.6924 57460.4703  0.40%     -    0s
     0     0 57460.4703    0    3 57233.6924 57460.4703  0.40%     -    0s
     0     0 57460.4703    0    4 57233.6924 57460.4703  0.40%     -    0s
     0     0 57460.4703    0    4 57233.6924 57460.4703  0.40%     -    0s
     0     2 57460.4703    0    4 57233.6924 57460.4703  0.40%     -    0s
H  114   123                    57400.470310 57460.4703  0.10%  75.0    0s
H  195   158                    57460.470310 57460.4703  0.00%  58.2    1s

Explored 258 nodes (15470 simplex iterations) in 1.11 seconds (2.09 work units)
Thread count was 8 (of 8 available processors)

Solution count 4: 57460.5 57460.5 57400.5 57233.7 

Optimal solution found (tolerance 1.00e-04)
Best objective 5.746047030979e+04, best bound 5.746047030979e+04, gap 0.0000%
